3371.64 0
0 57 47 49 40 38 43 44 128 116 122 117 114 113 124 119 37 34 0
0 131 126 73 70 68 65 71 74 66 39 45 0
0 76 85 90 88 86 91 81 82 79 80 0
0 146 143 142 147 140 141 2 16 5 17 9 3 10 104 98 109 0
0 145 149 144 139 138 148 84 89 92 137 0
0 94 96 95 93 75 87 83 78 77 0
0 129 130 133 69 72 67 121 135 0
0 112 105 103 99 101 108 97 100 106 0
0 29 115 123 127 120 125 118 134 132 64 0
0 107 111 110 15 7 8 14 1 6 0
0 58 51 46 41 50 48 42 4 11 12 13 150 102 0
0 27 36 24 23 30 32 31 26 28 22 21 18 0
0 20 35 33 19 0
0 61 60 55 136 25 0
0 53 59 56 62 54 63 52 0
